
 102   30
  10   10   10   10   10   10   10   10   10   10   10   10   10   10   10   10   10   10   10   10   10   10   10   10   10   10   10   10   10   10

   0   0   0   0   0   0   0   0   0   0   0   0   0   0   0   0   0   0   0   0   0   0   0   0   0   0   0   0   0   0   0  27 2 3 4 5 6 7 8 10 11 12 13 14 15 16 17 18 19 23 25 26 27 30 31 37 38 41 58 
   5   0   1   0   0   0   1   0   0   0   0   0   0   0   0   0   0   0   0   0   2   0   0   0   0   0   1   0   0   0   0   8 62 60 54 49 45 42 24 9 
   8   0   0   0   0   0   0   0   0   0   0   0   0   0   0   0   0   0   0   0   0   1   0   0   0   2   0   0   0   0   1   9 95 66 57 54 48 39 35 21 20 
   8   0   0   2   0   0   0   0   0   0   0   2   0   1   0   1   0   0   0   0   0   0   0   0   0   0   0   0   0   2   0   9 65 59 54 40 39 35 32 29 22 
   8   0   0   6   1   0   0   0   0   0   0   0   5   0   0   0   0   0   0   1   0   0   0   0   0   0   0   0   0   0   6  15 98 76 68 67 66 63 55 54 53 50 47 45 43 36 33 
   4   2   0  10   0   0   0   0   3   1   0   0   0   3   0   0   0   0   0   7   0   0   0   0   5   0   0   0   1   0   0  13 101 78 66 61 57 56 53 49 44 42 39 34 32 
   5   0   0   0   0   0   0   0   0   0   0   0   0   0   0   0   0   0   0   0   0   0   0   0   0   0   0   0   0   0   0  11 100 99 79 77 76 65 55 52 45 29 28 
   9   0   0   0   0   0   0   0   4   0   0   0   4   0   1   0   0   0   0   0   0   0   0   1   0   4   0   0   0   0   0  12 78 75 66 63 61 52 50 49 48 36 35 33 
   7   0   0   0   0   1   0   1   8   0   0   0   0   0   0   0   1   0   0   0   0   0   0   0   0   0   0   0   0   6   0  16 79 74 70 68 67 66 65 64 63 59 56 52 50 47 44 39 
   2   0   0   0   0   8   0   0   0   0   0   0   0   0   0   0   0   0   0   0   0   0   0   0   0   9   0   1   0   0   0  15 99 98 75 72 71 66 65 63 62 61 59 57 45 39 36 
   9   0   0   0   0   4   0   0   0   0   0   0   0   0   0   0   0   0   0   0   0   8   0   0   0   0   0   0   0   0   0  11 79 77 76 71 65 63 56 55 53 45 35 
   5   0   0   0   0   0   0   0   0   0   1   0  10   0   0   0   0   0   0   0   0   0   0   0   0   0   0   0   0   0   0  14 101 97 78 74 72 71 68 64 59 54 52 51 46 39 
   8   0   0   0   0   7   0   0  10   0   0   0   0   0   7   0   0   0   0   0   0   0   0   0   0   4   7   0   0   0   0  12 99 98 76 75 67 66 65 63 56 44 42 33 
   1   0   0   0   0   0   0   0   7   4   0   0   0   0   0   0   0   0   0  10   0   0   0   0   0   0   0   0   0   6   0  21 101 98 96 95 78 77 76 74 73 71 70 67 66 65 64 63 60 59 57 55 42 
   9   0   0   0   0   0   0   0   0   0   0   0   0   0   0   0   0   0   2   0   0   0   0   0   0   0   0   0   0   0   0  14 100 97 96 92 75 71 70 66 63 61 59 43 42 35 
   8   0   0   0   0   0   0   0   0   0  10   5   0  10   5   0   0   0   0   0   0   0   0   0   0   0   0   0   0   0   0  17 101 100 99 98 97 79 78 76 74 73 72 71 70 64 63 60 36 
   5   0   0   0   0   0   0   0   0   0   0   0   0   0   0   8   0   1   0   0   0   0   0   0   0   0   0   0   0   0   0   8 100 95 74 72 60 52 48 29 
   4   0   0   0   0   0   0   0   0   0   0   0   0   0   0   0   8   0   0   0   7   0   0   0   0   0   0   0   0   8   0  17 99 98 96 92 77 75 74 72 71 65 64 63 61 60 55 46 42 
   9   0   5   7   0   0   0   7   0   0   0   0   4   0   0   0   0   0   0   0   6   0   0   0   0   0   0   0   0   0   0  12 94 87 78 77 76 73 72 67 63 60 55 40 
   4   6   8   0   0   0   0   0   6   0   0   0   0   0   0   2   0   0   0   0   0   0   0   0   2   0   0   0   0   0   0  19 100 99 94 92 90 79 78 77 76 75 74 73 72 71 70 64 63 59 55 
   7   0   6   0   0   0   0   0   9   0   4   0   0   0   0   0   0   0   0   4   0   0   0   0   0   0   0   0   0   0   0  12 98 96 76 75 72 71 67 64 63 61 45 42 
   6   0   5   0   0   0   0   0   0   7   0   0   0   7   0   0   8   0   5   0   0   0   0   0   6   0   0   0   0   0   8  16 101 96 94 93 87 79 78 75 74 73 70 69 66 63 60 44 
   3   0   0   0   4   0   0   0   5   0   9   0   0   0   0   0   0   0   0   0   0   3   0   0   0   0   0   0   0   7   0  10 101 99 94 90 76 65 64 63 52 40 
   7   9   0   0   0   0   0   0   0   0   0   0   0   0   0   0   5   0   8   0   0   0   1   0   8   0   0   0   0   6   0  14 99 98 96 93 88 79 73 69 67 65 64 59 50 44 
   7   0   6   0   9   0   3   0   0   0   0   0   0   0   0   0   0   0   0   0   0   0   0   0   3   0   0   0   5   0   0  14 101 99 94 85 74 73 72 71 66 63 62 60 55 54 
   3   0   7   0   0   0   0   6   0   0   0   0   0   0   0   0   0   0   0   0   0   0   6   5   7   0   0   0   0   0   0  14 99 94 93 91 90 88 76 74 73 66 64 59 54 44 
   5   0   0   0   0   3   8   0   0   0   0   0   0   0   0   0   0   0   8   0   0   5   0   5   0   0   0   0   9   0   0  11 101 100 99 95 75 74 64 63 54 52 42 
   5   0   0   0   0   0   0   0   0   0   0   6   0   0   3   0   0   5   0   0   0   0   0   0   0   0   0   0   4   0   0  14 97 96 94 93 92 78 75 72 70 69 64 63 59 46 
   3   0   9   0   0   0   0   0   7   0   0   0   0  10   0   9   0   6   0   7   0   0   0   0   0   0   0   5   0   0   0  10 97 96 86 78 73 71 67 64 63 42 
   4   0   0   0   0   0  10   0   0   0   0   0   0   0   0   0  10   0   0   0   6   0   0   0   0   0   0   0   0   0   0  16 101 98 96 95 94 93 91 90 89 83 78 75 74 69 64 63 
   3   4   0   0   0   0   0   0   0   0   0   0   0   7  10   0   4   4   0   0   0  10   0   0   0   0   0   0   0   5   0   8 99 97 96 92 73 63 60 42 
   8   0   0   0   0   0   0   0   0   0   0   0   0   0   0   0   0   0   0   0   0   0   0   0   8   0   0   0   0   0   0  17 100 99 98 97 95 92 91 90 89 88 87 83 80 79 76 69 63 
   7   0   0   0   0   0   0   0   0   0   7   0   0   0   4   7   0   5   0   0   0   0   0   0   0   0   0   0   0   0   3  16 100 97 95 94 93 90 89 88 84 83 79 77 72 71 70 64 
   5   0   0   0   0   0   0   0   0   0   0   0   0   0   0   0   4   0   0   0   0   0   0   0   0   0   0   0   0   0   0   9 100 99 95 93 74 73 70 64 48 
   2   0   0   0   0   0   0   0   0   0   0  10   0   0   0   0   0   0   0   0   0   0   0   0   0   0   0   0   0   5   0  12 99 98 93 91 88 83 74 73 72 69 64 60 
   6   0   0   0   0   0   0   0   0   5   0   0   0   0   8   0   0   0   0   0   0   0   8   4   0   0   0   7   0   4   0   4 96 95 86 42 
   6   0   0   0   0   0   0   0   0   0   6   0   0   0   0   0   8   0   0   0   0   0   0   0  10   0  10   0   0   7   6  14 92 91 90 89 87 86 85 84 83 78 76 73 72 71 
   4   0   4   0   0   0   0   0   0   0   0   0   0   0   9   0   0   0   0   3   0   0   0   0   0   0   0   0   0   0   7  12 100 99 97 95 88 87 83 80 76 75 70 59 
   8   0   0   0   0   0   0   0   6   0   0   0   0   0   0   8   0   0   0   0   0   0   0   0   0   0   6   4   0   0   0   8 100 94 92 88 86 77 76 55 
   8   0   0   0   0   0   0   0   0   0   0   0   0   0   0   0   0   9   0   0   0   0   5   0   0   0   0   0   0   0   0  13 100 98 96 95 93 92 88 85 84 83 75 71 70 
   9   0   0   0   0   0   0   0   0   0   0   0   0   4   0   0   0   0   0   0   0   0   0   0   8   4   0   6   0   0   0  11 94 92 90 89 87 85 83 82 78 75 65 
   6   0   9   0   0   0   0   0   4   0   0   0   8   0   0   0   0   0   0   9   0   0   0   0   0   0   0   0   0   0   0  13 94 93 91 90 89 88 87 85 84 83 81 80 69 
   3   0   9   0   0   0   0   1   0   7   0   0   0   0   4   0   0   0   0   0   0   0   0   0   6   0   0   8   0   0   0  12 99 95 91 89 88 87 86 84 83 82 73 65 
   7   0   0   0   0   0   8   0   0   0   0   0   0   0   0   7   0   0   5   8   5   0   0   0   0   0   0   0   0   0   8  10 97 95 92 89 84 83 82 81 77 72 
  10   1   0   0   0   0   0   0   0   0   0   0   0   0   0   0   0   0   0   5   3   0   0   0   0   0   0   0   0   0   0   9 101 97 92 90 88 85 82 74 70 
  10   0   0   0   0   0   0   0   0   0   0   0   0   6   7   0   0   0   0   0   7   0   0   0   0   7   6   0   0   0   0   9 95 90 87 85 84 83 81 80 66 
   2   0   0   0   0   7   0   0   0   0   0   0   6   0   0   0   0   0   0  10   0   8   0   6   0   0   0   0   6   0   0   9 93 91 90 89 87 83 80 75 69 
   1   0   0   0   0   0   0   0   0   0   0   0   0   5   0   0   0   0   6   0   0   0   0   7   7   0   0   0   0   0   0   8 91 88 87 85 84 83 69 65 
   5   0   0   0   0   6   0   6   0   0   0   0   0   0   2   0   0   0   0   4   0   0   0   0   0   0   7   0   0   0   0   8 92 91 86 83 80 79 71 69 
   5   0   0   0   0   0   9   0   0   0   0   0   6   0   0   0   0   0   0   0   6   0   0   0   4   0   7   0   0  10   0   8 92 89 87 86 85 82 72 71 
   5   0   0   0   0   6   0   0   0   0   8   0   0   0   0   0   0   0  10   0   0   0   0   7   0   0   0   0   0   0   0   9 98 94 92 90 84 83 82 81 80 
   3   0   0   4   0   0   0   0   5   0   0   0   0   0   0  10   0   0   7   0   0   0   0   0   0   0   0   0   0   0   0   8 98 91 89 85 84 83 81 69 
   9   0   0   0   6   0   0   0   0   0   0   4   0   0   0   0   0   0   0   0   0   0   0   0   7   0   0   0   0   0   0   6 95 94 87 81 80 59 
   3   0   0   0   0   0   0   0   7   0   0   0   0   0   0   0   0   0   0   0   0   0   0   0   0   7   6   0   0   0   0   7 96 92 87 84 82 80 70 
  10   0   0   0   0   0   0   0   0   0   0   0   0   0   4   0   0   0   0   0   0   0   6   0   0   0   0   0   0   0   0   6 93 91 84 83 80 69 
   2  10   0   0   0   7   0   0   0   5   3   0   0   0   0   0   0   0   0   0   0   0   0   0   0   0   0   0   0   0   0   6 96 90 88 85 81 73 
   6   0   0   0   0   0   0   0   0   0   0   0   0   0   0   0   0   0   0   0   0   0  10   8   0   0   0   0   0   0   0   6 97 87 86 84 83 80 
   2   0   0   0   0   0   0   0   5   0   0   0   0   0   0   0   0   0   5   0   0   6   0   0   0   0   0   0   0   0   0   5 91 88 87 84 82 
   3   6   0   0   0   0   0   0   0   0   0   0   0   3   0   7   0   0   8   0   6   0   5   0   0   0   0   0   0   0   0   3 89 84 82 
   1   0   0   0   0   0   5   8   0   0   0   0   3   0   0   0   0   0   0   0   0   0   3   0   0   0   5   0   0   0   0   3 90 89 81 
   1   0   0   0   0   0   0   0   0  10   0   0   0   0   0   1   0   0   0   0   0   0   0   6   0   5   0   0   6   0   0   3 89 86 83 
  10   0   0   5   0   0   0   0   0   0   7   0   0   0   0   0   0   0   0   0   0   0   0   8   0   0   0   9   0   0   0   3 88 86 81 
  10   0   0   0   4   0   0   0   0   0   0   0   0   8   0   0   0   0   0   0   0   0   9   0   0   0   0   0   0   0   0   2 84 82 
  10   0   0   0   0   0   0   8   0   0   7   0   0   0   5   0   0   0   0   0   0   0   0   0   0   0   7   0   0   0   0   2 87 85 
   6   0   5   0   0   0   0   0   0   0   4   9   0   0   0   0   0   0   0   0   0   0   0   0   0   0   0   0   0   0   8   2 81 80 
   3   0   0   0   5  10   0   0   0   0   0   0   0   0   0   4   0   0   0   0   0   0   0   0   0   0   0   0  10   0   0   2 86 82 
  10   0   0   0  10   0   0   0   0   0   0   0   0   0   0   0   0   0   0   0   0   0   0   0   0   0   0   7   0   0   0   2 92 90 
   5   0   0   0   0   0   0   0   0   0   0   0   0   0   0   0   0   0   0   0   0   0   0   5   0   0   0   0   0   0   0   2 86 81 
   9   0   0   0   0   0   0   0   0   0   0   0   0   0   0   0   5   0   0   0   0   0   0   0   0   0   6   0   0   0   0   1 82 
  10   0   0   0   0   6   5   0   6   0   0   0   0   0   0   0   0   5   0   0   0   0   0   0   0   0   0   0   0   0   0   1 86 
   4   0   0   0   0   0   0   0   0   0   0   0   0   0   0   0   0   4   0   0   0   0   0   0   0   0   0   0   0   0   5   1 81 
   1   0   0   5   0   0   0   0   0   0   0   0   0   0   0   0   0   7   0   0   0   0   0   0   0   7   0   0   0   0   6   1 80 
   7   0   0   0   6   0   0   0   8   0   0   6   8   0   0   0   0   0   0   0   0   0   0   0   0   0   0   0   0   0   0   1 80 
  10   0   0   0   0   8   0   0   0   0   0   0   0   0   0   0   0   0   4   0   0   6   0   0   0   0   0   0   0   0   0   1 80 
   2   0   0  10   0   5   0   0   0   0   0   0   0   0   0   0   0   0   0   0  10   0   0   0   0   0   0   0   0   0   0   1 86 
   4   0   0   0   0   0   0   0   0   0   0   0   0   0   8   0   0   0   0   0   5   0   0   0   0   0   0   0   0   0   0   1 81 
   7   0   0   0   0   0   6   0   0   0   0   0   0   0   8   0   0   4   4   5   0   0   3   0   0   0   0   0   0   0   0   1 85 
   2   0   0   0   0   0   0   0   0   0   0   0   0   5   0   0   0   6   0   0   0   0   9   0   0   0   0   0   0   0   0   1 88 
   6   0   0   0   0   0   5   0   6   9   0   0   0   2   7   0   0   0   0   0   0   0   0   0   0   0   0   0   0   0   0   1 85 
   8   4   0   0   0   0   0   6   0   0   0   0   0   0   6   0   0   6   0   0   0   0   0   0   0   0   0   0   0   0   0   1 102
   6   0   0   0   0   0   0   0   0   0   4   0   0  10   5   0   0   9   0   0   0   0   0   0   0   0   0   0   0   0   8   1 102
   3   0   0   0   0   7   7   0   2   0   0   4   0   0   0   0   0   0   0   0   0   0   0   0   0   0   0   7   8   0   0   1 102
   1   8   0   0   0   0   0   0   2   0   0   0   0   0   0   0   0   7   0   0   0   0   0   0   0   8   0   0   0   0   0   1 102
   5   0   0   0   0   0   0   0   0   0   0   0   0   4   0   0   6   0   0   0   0   0   0   0   0   0   0   0   0   4   0   1 102
  10   6   0   0   0   0   0   0   0   0   0   0   3   0   0   0   0   0   0   0   4   0   0   0   3   0   0   0   0   0   0   1 102
   7   0   0   0   0   0   0   0  10   0   0   0   0   0   0   0   0   0   0   2   0   0   0   0   0   4   0   0   0   0   0   1 102
   5   0   0   0   0   6   0   0   0   0   0   0   0   0   0   0   0   0   0   9   0   0   0   0   0   0   0   0   0   7   0   1 102
   7   9   0   5  10   0   0   0   0   0   0   0   0   0   0   0   0   0   0   0   0   3   0   0   0   0   0   0   0   0   0   1 102
   7   0   0   0   0   0   0   9   0   0   0   0   0   0   0   0   0   0   0   0   6   0   0   0   0  10   0   0   5   0   0   1 102
   8   0   0   0   7   0   0   0   0   0   0   0   0   0   0   0   5   0   0   0  10   0   0   0   0   0   0   0   0   0   0   1 102
   1   0   0   0   0   0   0   0   0   0   0   0   0   0  10   0   0   0   6   0   0   0   0   0   0   0   0   0   0   0   0   1 102
   1   0   0   0   0   0   5   0   0   0   0   0   0   0   7   0   0   7   0   0   4   0   0   0   0   0   0   0   0   0   0   1 102
   6   0   0   0   0   0   0   0   0   0   0   0   0  10   0   0   0   0   0   0   6   0   0   0   0   0   4   0   0   0   0   1 102
   9   0   0   0   0   0   0   0   0   0   8   0   0   8   0   0   0   0   0   0   0   0   0   0   0   0   0   0   0   0   0   1 102
   2   0   0   0   6   0   0   0   0   0   0   0   0   0   0   0   0   0   0   0   9   0   0  10   0  10   0   0   0   0   0   1 102
   1   0   0   0   0   5   0   8   0   0   0   0   0   0   0   0   0   0   0   0   0  10   7   0   0   0   0   0   0   8   0   1 102
   9   0   0   0   0   0   0   0   0   0   0   0   9   0   0   0   0   0   0   0   0   0   0   0   0   0   0   0   0   5   0   1 102
   7   0   0   0   5   0   0   0   0   0   0   0   0   5   0   0   0   9   0   0   0   0   0   0   0   0   0   0   0   0   0   1 102
   6   7   4   0   5   0   0   0   0   0   0   8   0   6   0   8   8   0   0   0   0   0   0   0   0   0   0   0   0   0   0   1 102
   5   0   0   0   0   6   0   0   0   0   0   0   0   0   0   0   0   0   6   0   0   0   0   0   0   0   0   0   0   0   0   1 102
   7   0   0   0   0   0   0   0   0   0   0   0   0   0   0   0   0   8   0   0   0   0   0   0   0   3   0   0   0   0   0   1 102
   0   0   0   0   0   0   0   0   0   0   0   0   0   0   0   0   0   0   0   0   0   0   0   0   0   0   0   0   0   0   0   0 
